1 2466 2965
2 2109 2375
3 3031 523
4 1165 194
5 2935 1120
6 3088 2592
7 2001 1305
8 2224 2586
9 487 2892
10 1563 93
11 307 2795
12 56 2114
13 106 587
14 2318 884
15 1454 3000
16 2663 2729
17 134 2657
18 148 713
19 2964 2694
20 1591 1247
21 523 1609
22 274 577
23 2925 2689
24 2129 1884
25 3079 1802